\ Model Routes
\ LP format - for model browsing. Use MPS format to capture full model detail.
Maximize
  - 127.7762031097757 R{0,0} + 699.2844101376947 R{0,1}
   + 1527.814359928117 R{0,2} + 1535.925540631162 R{0,3}
   + 981.2357995511425 R{0,4} + 1128.375802241167 R{0,5}
   + 587.8825999496677 R{0,6} + 1349.129134897985 R{0,7}
   + 242.8728297663412 R{0,8} + 223.1853690502865 R{0,9}
   + 362.3265176427798 R{0,10} + 163.8771466588898 R{0,11}
   + 543.8982299319794 R{0,12} + 812.9741153141734 R{0,13}
   - 200.856038906509 R{1,0} + 998.8445681817443 R{1,1}
   + 1000.773759849686 R{1,2} + 1627.988391849548 R{1,3}
   + 1026.164658779181 R{1,4} + 1411.603792323017 R{1,5}
   + 372.8657178935879 R{1,6} + 407.0495321099826 R{1,7}
   + 1176.987492082082 R{1,8} + 187.3874654315127 R{1,9}
   + 222.9432179900532 R{1,10} + 1109.812434058048 R{1,11}
   + 1369.477186657507 R{1,12} + 1474.955872587534 R{1,13}
   + 1982.171235580134 R{1,14} - 133.5200660505167 R{2,0}
   + 328.545359029852 R{2,1} + 738.6917068701267 R{2,2}
   + 714.0787549392243 R{2,3} + 129.5811285412867 R{2,4}
   + 95.3683916216842 R{2,5} + 492.9059180736779 R{2,6}
   + 201.095029229098 R{2,7} + 290.4411271746987 R{2,8}
   + 39.65996882268263 R{2,9} + 373.4459283318808 R{2,10}
   + 457.4157314018556 R{2,11} + 855.4073151301737 R{2,12}
   + 1568.005293996262 R{3,0} - 192.385172168201 R{3,1}
   + 1179.770016396192 R{3,2} + 1631.18333275709 R{3,3}
   + 670.9225134617109 R{3,4} + 1453.063014882492 R{3,5}
   + 87.15435135196344 R{3,6} + 920.3380422002256 R{3,7}
   + 362.320149801904 R{3,8} + 634.1964813681564 R{3,9}
   + 31.62250959758614 R{3,10} + 1067.609554411739 R{3,11}
   + 1025.244268181936 R{3,12} + 494.4362514471032 R{3,13}
   + 944.2153422376468 R{4,0} - 110.311124685748 R{4,1}
   + 249.2850660077673 R{4,2} + 3530.827638621746 R{4,3}
   + 3525.307596754079 R{4,4} + 2257.799032032691 R{4,5}
   + 2698.622977070529 R{4,6} + 2735.663688658585 R{4,7}
   + 2285.006532435197 R{4,8} + 1695.757884768544 R{4,9}
   + 1732.796604536261 R{4,10} + 2514.070775105472 R{4,11}
   + 1899.958625717898 R{4,12} + 1786.692595941122 R{4,13}
   + 1694.318581093437 R{4,14} + 2728.478931061005 R{4,15}
   + 427.5306353770381 R{4,16} - 185.9792297999622 R{5,0}
   - 85.10537616460039 R{5,1} + 566.7981903846074 R{5,2}
   + 294.5002834521387 R{5,3} + 1156.551354802482 R{5,4}
   + 738.5779867643762 R{5,5} + 106.5829168684712 R{5,6}
   + 972.6511149593973 R{5,7} + 996.7745711772211 R{5,8}
   + 91.02502104557465 R{5,9} + 260.0245153720392 R{5,10}
   + 369.2439382682845 R{5,11} + 50.59195377931934 R{5,12}
   + 988.3073676313754 R{5,13} + 929.2818519800348 R{5,14}
   + 1113.098929514134 R{5,15} + 950.8751132020116 R{5,16}
   + 1546.460874264592 R{6,0} + 1939.461777148877 R{6,1}
   - 151.6582656969574 R{6,2} + 969.551971946385 R{6,3}
   + 2749.632522999908 R{6,4} + 3406.676990950937 R{6,5}
   + 2597.665053565271 R{6,6} + 1089.068843456458 R{6,7}
   + 1748.182336421878 R{6,8} + 1223.839206827172 R{6,9}
   + 865.5195744837504 R{6,10} + 1388.271895389851 R{6,11}
   + 335.9391733663378 R{6,12} + 1457.366751841104 R{6,13}
   + 1156.901632826594 R{6,14} + 2879.583389780627 R{6,15}
   + 2557.358072600199 R{6,16}
Subject To
 R00: R{0,0} <= 1
 R01: R{0,1} <= 1
 R02: R{0,2} <= 1
 R03: R{0,3} <= 1
 R04: R{0,4} <= 1
 R05: R{0,5} <= 1
 R06: R{0,6} <= 1
 R07: R{0,7} <= 1
 R08: R{0,8} <= 1
 R09: R{0,9} <= 1
 R010: R{0,10} <= 1
 R011: R{0,11} <= 1
 R012: R{0,12} <= 1
 R013: R{0,13} <= 1
 R014: R{1,0} <= 1
 R015: R{1,1} <= 1
 R016: R{1,2} <= 1
 R017: R{1,3} <= 1
 R018: R{1,4} <= 1
 R019: R{1,5} <= 1
 R020: R{1,6} <= 1
 R021: R{1,7} <= 1
 R022: R{1,8} <= 1
 R023: R{1,9} <= 1
 R024: R{1,10} <= 1
 R025: R{1,11} <= 1
 R026: R{1,12} <= 1
 R027: R{1,13} <= 1
 R028: R{1,14} <= 1
 R029: R{2,0} <= 1
 R030: R{2,1} <= 1
 R031: R{2,2} <= 1
 R032: R{2,3} <= 1
 R033: R{2,4} <= 1
 R034: R{2,5} <= 1
 R035: R{2,6} <= 1
 R036: R{2,7} <= 1
 R037: R{2,8} <= 1
 R038: R{2,9} <= 1
 R039: R{2,10} <= 1
 R040: R{2,11} <= 1
 R041: R{2,12} <= 1
 R042: R{3,0} <= 1
 R043: R{3,1} <= 1
 R044: R{3,2} <= 1
 R045: R{3,3} <= 1
 R046: R{3,4} <= 1
 R047: R{3,5} <= 1
 R048: R{3,6} <= 1
 R049: R{3,7} <= 1
 R050: R{3,8} <= 1
 R051: R{3,9} <= 1
 R052: R{3,10} <= 1
 R053: R{3,11} <= 1
 R054: R{3,12} <= 1
 R055: R{3,13} <= 1
 R056: R{4,0} <= 1
 R057: R{4,1} <= 1
 R058: R{4,2} <= 1
 R059: R{4,3} <= 1
 R060: R{4,4} <= 1
 R061: R{4,5} <= 1
 R062: R{4,6} <= 1
 R063: R{4,7} <= 1
 R064: R{4,8} <= 1
 R065: R{4,9} <= 1
 R066: R{4,10} <= 1
 R067: R{4,11} <= 1
 R068: R{4,12} <= 1
 R069: R{4,13} <= 1
 R070: R{4,14} <= 1
 R071: R{4,15} <= 1
 R072: R{4,16} <= 1
 R073: R{5,0} <= 1
 R074: R{5,1} <= 1
 R075: R{5,2} <= 1
 R076: R{5,3} <= 1
 R077: R{5,4} <= 1
 R078: R{5,5} <= 1
 R079: R{5,6} <= 1
 R080: R{5,7} <= 1
 R081: R{5,8} <= 1
 R082: R{5,9} <= 1
 R083: R{5,10} <= 1
 R084: R{5,11} <= 1
 R085: R{5,12} <= 1
 R086: R{5,13} <= 1
 R087: R{5,14} <= 1
 R088: R{5,15} <= 1
 R089: R{5,16} <= 1
 R090: R{6,0} <= 1
 R091: R{6,1} <= 1
 R092: R{6,2} <= 1
 R093: R{6,3} <= 1
 R094: R{6,4} <= 1
 R095: R{6,5} <= 1
 R096: R{6,6} <= 1
 R097: R{6,7} <= 1
 R098: R{6,8} <= 1
 R099: R{6,9} <= 1
 R0100: R{6,10} <= 1
 R0101: R{6,11} <= 1
 R0102: R{6,12} <= 1
 R0103: R{6,13} <= 1
 R0104: R{6,14} <= 1
 R0105: R{6,15} <= 1
 R0106: R{6,16} <= 1
 R1_0: R{0,0} + R{0,1} + R{0,2} + R{0,3} + R{0,4} + R{0,5} + R{0,6}
   + R{0,7} + R{0,8} + R{0,9} + R{0,10} + R{0,11} + R{0,12} + R{0,13} <= 1
 R1_1: R{1,0} + R{1,1} + R{1,2} + R{1,3} + R{1,4} + R{1,5} + R{1,6}
   + R{1,7} + R{1,8} + R{1,9} + R{1,10} + R{1,11} + R{1,12} + R{1,13}
   + R{1,14} <= 1
 R1_2: R{2,0} + R{2,1} + R{2,2} + R{2,3} + R{2,4} + R{2,5} + R{2,6}
   + R{2,7} + R{2,8} + R{2,9} + R{2,10} + R{2,11} + R{2,12} <= 1
 R1_3: R{3,0} + R{3,1} + R{3,2} + R{3,3} + R{3,4} + R{3,5} + R{3,6}
   + R{3,7} + R{3,8} + R{3,9} + R{3,10} + R{3,11} + R{3,12} + R{3,13} <= 1
 R1_4: R{4,0} + R{4,1} + R{4,2} + R{4,3} + R{4,4} + R{4,5} + R{4,6}
   + R{4,7} + R{4,8} + R{4,9} + R{4,10} + R{4,11} + R{4,12} + R{4,13}
   + R{4,14} + R{4,15} + R{4,16} <= 1
 R1_5: R{5,0} + R{5,1} + R{5,2} + R{5,3} + R{5,4} + R{5,5} + R{5,6}
   + R{5,7} + R{5,8} + R{5,9} + R{5,10} + R{5,11} + R{5,12} + R{5,13}
   + R{5,14} + R{5,15} + R{5,16} <= 1
 R1_6: R{6,0} + R{6,1} + R{6,2} + R{6,3} + R{6,4} + R{6,5} + R{6,6}
   + R{6,7} + R{6,8} + R{6,9} + R{6,10} + R{6,11} + R{6,12} + R{6,13}
   + R{6,14} + R{6,15} + R{6,16} <= 1
 R2_0: 5 R{1,3} + 5 R{3,0} + 5 R{3,7} + 5 R{3,11} + 5 R{3,12} + 5 R{4,3}
   + 5 R{4,4} + 5 R{6,3} + 5 R{6,4} + 5 R{6,5} + 5 R{6,6} + 5 R{6,7}
   + 5 R{6,8} + 5 R{6,10} + 5 R{6,13} + 5 R{6,15} + 5 R{6,16} <= 5
 R2_1: 9 R{0,1} + 9 R{0,2} + 9 R{0,3} + 9 R{0,6} + 9 R{0,7} + 9 R{1,14}
   + 9 R{2,2} + 9 R{5,2} + 9 R{5,4} + 9 R{5,5} + 9 R{5,7} + 9 R{5,14}
   + 9 R{5,16} + 9 R{6,1} + 9 R{6,4} + 9 R{6,5} + 9 R{6,6} + 9 R{6,8} <= 9
 R2_2: <= 0
 R2_3: 5 R{0,1} + 5 R{0,2} + 5 R{0,3} + 5 R{0,4} + 5 R{0,5} + 5 R{0,6}
   + 5 R{0,7} + 5 R{0,8} + 5 R{0,13} + 5 R{2,6} + 5 R{4,4} + 5 R{4,7}
   + 5 R{4,8} + 5 R{4,9} + 5 R{4,15} <= 5
 R2_4: 13 R{0,1} + 13 R{0,2} + 13 R{0,6} + 13 R{0,10} + 13 R{0,13}
   + 13 R{4,0} + 13 R{4,16} <= 13
 R2_5: 5 R{0,3} + 5 R{0,4} + R{0,5} + 5 R{2,1} + 5 R{2,2} + 5 R{2,7} <= 5
 R2_6: <= 0
 R2_7: 8 R{0,7} + 8 R{0,12} + 8 R{1,13} + 8 R{4,0} + 8 R{4,3} + 8 R{4,4}
   + 8 R{4,5} + 8 R{5,9} + 8 R{5,13} + 8 R{6,3} + 8 R{6,4} + 8 R{6,5}
   + 8 R{6,7} + 8 R{6,8} + 8 R{6,9} + 8 R{6,11} + 8 R{6,13} + 8 R{6,14}
   + 8 R{6,15} + 8 R{6,16} <= 8
 R2_8: 9 R{1,7} + 9 R{4,8} + 9 R{4,11} + 9 R{4,14} + 9 R{6,5} + 9 R{6,6}
   + 9 R{6,15} + 9 R{6,16} <= 9
 R2_9: 12 R{2,10} + 12 R{3,12} + 12 R{4,15} + 12 R{5,12} + 12 R{6,13}
   <= 12
 R2_10: 5 R{1,1} + 5 R{1,2} + 5 R{1,3} + 5 R{1,11} + 5 R{1,12} + 5 R{1,13}
   + 5 R{1,14} + 5 R{6,4} + 5 R{6,5} + 5 R{6,6} + 5 R{6,15} + 5 R{6,16}
   <= 5
 R2_11: 14 R{1,5} + 14 R{1,7} + 14 R{1,13} + 14 R{4,3} + 14 R{4,4}
   + 14 R{4,5} + 14 R{4,6} + 14 R{4,7} + 14 R{4,9} + 14 R{4,10}
   + 14 R{4,15} + 14 R{6,6} <= 14
 R2_12: 13 R{2,1} + 13 R{2,2} + 13 R{2,4} + 13 R{3,0} + 13 R{3,11}
   + 9 R{4,13} + 10 R{4,16} + 10 R{5,16} + 10 R{6,4} + 10 R{6,5}
   + 13 R{6,8} + 13 R{6,14} + 10 R{6,15} + 13 R{6,16} <= 13
 R2_13: <= 0
 R2_14: <= 0
 R2_15: 12 R{0,11} + R{4,3} + R{4,4} + 12 R{6,3} + 12 R{6,4} + 12 R{6,5}
   + 12 R{6,7} + 12 R{6,8} + 12 R{6,13} + 12 R{6,15} <= 12
 R2_16: 5 R{2,10} + 5 R{4,5} + 5 R{4,6} + 5 R{4,7} + 5 R{4,8} + 5 R{4,9}
   + 5 R{4,10} + 5 R{4,11} + 5 R{4,12} + 5 R{4,13} + 5 R{4,15} + 5 R{5,12}
   <= 5
 R2_17: 11 R{1,11} + 11 R{3,2} + 11 R{3,8} + 11 R{3,9} + 3 R{3,11}
   + 11 R{3,12} + 11 R{3,13} + 11 R{5,6} + 11 R{5,7} + 11 R{5,10}
   + 11 R{5,11} + 11 R{5,14} + 11 R{6,12} + 3 R{6,15} + 3 R{6,16} <= 11
 R2_18: 6 R{1,1} + 6 R{1,2} + 6 R{1,3} + 6 R{1,4} + 6 R{1,5} + 6 R{1,8}
   + 6 R{1,11} + 6 R{1,12} + 6 R{1,14} + 6 R{2,3} + 6 R{2,4} + 6 R{2,12}
   + 6 R{3,4} + 6 R{4,6} + 6 R{5,5} + 6 R{5,7} <= 6
 R2_19: 8 R{0,2} + 8 R{0,3} + 8 R{0,5} + 8 R{0,7} + 8 R{0,10} + 8 R{0,13}
   + 8 R{1,1} + 8 R{1,2} + 8 R{1,3} + 8 R{1,5} + 8 R{1,8} + 8 R{1,11}
   + 8 R{1,12} + 8 R{1,13} + 8 R{1,14} + 8 R{3,0} + 8 R{3,5} + 8 R{4,11}
   <= 8
 R2_20: 10 R{3,2} + 10 R{3,3} + 10 R{3,5} + 10 R{4,3} + 10 R{4,4}
   + 10 R{4,7} + 10 R{4,8} + 7 R{4,11} + 10 R{4,15} + 10 R{5,4} + 10 R{5,8}
   + 10 R{5,13} + 10 R{5,15} + 10 R{6,0} + 10 R{6,1} + 10 R{6,4}
   + 10 R{6,5} + 10 R{6,15} + 10 R{6,16} <= 10
 R2_21: 8 R{0,12} + 8 R{1,1} + 8 R{1,2} + 8 R{1,3} + 8 R{1,5} + 8 R{1,8}
   + 8 R{1,12} + 8 R{1,13} + 8 R{1,14} + 8 R{3,6} + 8 R{5,10} + 8 R{5,14}
   + 8 R{6,11} + 8 R{6,12} <= 8
 R2_22: 11 R{1,1} + 11 R{1,2} + 11 R{1,3} + 11 R{1,5} + 11 R{1,6}
   + 11 R{1,8} + 11 R{1,11} + 11 R{1,12} + 11 R{1,13} + 11 R{1,14}
   + 3 R{3,7} + 11 R{3,12} + 11 R{6,10} + 4 R{6,12} <= 11
 R2_23: 14 R{0,11} + 14 R{2,8} + 14 R{2,9} + 14 R{2,10} + 14 R{3,10}
   + 9 R{4,12} + 9 R{4,13} + 14 R{6,5} + 14 R{6,13} + 14 R{6,15}
   + 6 R{6,16} <= 14
 R2_24: 7 R{1,10} + 7 R{2,11} + 7 R{3,0} + 7 R{3,7} + 7 R{3,11} + 7 R{3,12}
   + 7 R{4,7} + 7 R{4,8} + 7 R{4,9} + 7 R{4,10} + 7 R{4,11} + 7 R{4,14}
   + 7 R{4,15} + 7 R{5,1} + 7 R{5,2} + 7 R{5,4} + 7 R{5,5} + 7 R{5,7}
   + 5 R{5,8} + 7 R{5,9} + 5 R{5,13} + 7 R{5,14} <= 7
 R2_25: 12 R{0,12} + 12 R{3,2} + 12 R{3,3} + 12 R{3,8} + 12 R{3,9}
   + 12 R{3,13} + 10 R{4,8} + 10 R{4,9} + 10 R{4,10} + 12 R{4,11}
   + 12 R{4,13} + 12 R{4,14} + 12 R{6,0} + 12 R{6,1} + 12 R{6,9}
   + 12 R{6,10} <= 12
 R2_26: 6 R{0,9} + 6 R{1,9} + 6 R{1,14} + 6 R{2,7} + 6 R{3,9} + 6 R{4,2}
   + 6 R{4,3} + 6 R{4,4} + 6 R{4,5} + 6 R{4,7} + 6 R{4,15} + 6 R{5,8}
   + 6 R{5,15} + 6 R{6,0} + 6 R{6,4} + 6 R{6,5} + 6 R{6,15} <= 6
 R2_27: <= 0
 R2_28: 7 R{0,4} + 7 R{0,8} + 7 R{2,1} + 7 R{2,3} + 7 R{2,6} + 7 R{2,11}
   + 7 R{2,12} + 7 R{4,16} + 7 R{5,15} + 7 R{5,16} + 7 R{6,16} <= 7
 R2_29: <= 0
 R2_30: <= 0
 R2_31: 5 R{0,2} + 5 R{0,3} + 5 R{0,4} + 5 R{1,4} + 5 R{2,3} + 5 R{2,6}
   + 5 R{2,12} + 5 R{3,2} + 5 R{3,3} + 5 R{4,0} + 5 R{4,3} + 5 R{4,4}
   + 5 R{4,6} + 5 R{4,12} + 5 R{4,16} + 5 R{5,16} + 5 R{6,4} + 5 R{6,5}
   + 5 R{6,6} + 5 R{6,15} <= 5
 R2_32: 10 R{0,13} + 10 R{2,11} + 10 R{2,12} + 10 R{4,2} + 10 R{4,3}
   + 10 R{4,4} + 10 R{4,5} + 10 R{4,6} + 10 R{4,12} + 10 R{4,13} <= 10
 R2_33: 12 R{0,4} + 12 R{0,5} + 12 R{1,4} + 12 R{3,0} + 12 R{3,4}
   + 12 R{3,5} + 12 R{3,7} + 12 R{3,11} + 12 R{4,0} + 10 R{4,3} + 10 R{4,4}
   + 10 R{4,5} + 10 R{4,6} + 10 R{4,7} + 10 R{4,15} + 12 R{5,3} + 12 R{6,3}
   + 12 R{6,4} + 12 R{6,5} + 12 R{6,6} + 12 R{6,7} + 12 R{6,8} + 12 R{6,13}
   + 12 R{6,15} + 12 R{6,16} <= 12
 R2_34: <= 0
 R2_35: 15 R{3,0} + 15 R{3,2} + 15 R{3,3} + 15 R{3,8} + 15 R{3,9}
   + 15 R{3,13} + 10 R{4,6} + 10 R{4,12} + 15 R{6,5} <= 15
 R2_36: 15 R{1,10} + 15 R{1,12} + 15 R{4,2} + 15 R{4,3} + 15 R{4,5}
   + 15 R{4,6} + 15 R{4,7} + 15 R{4,8} + 15 R{4,9} + 15 R{4,10}
   + 15 R{4,11} + 15 R{4,12} + 15 R{4,13} + 15 R{4,15} + 15 R{5,8}
   + 15 R{5,13} + 15 R{5,15} <= 16
 R2_37: 6 R{0,9} + 6 R{1,4} + 6 R{1,9} + 6 R{1,10} + 6 R{2,1} + 6 R{2,2}
   + 6 R{2,3} + 6 R{2,7} + 6 R{2,11} + 6 R{2,12} + 6 R{3,4} + 6 R{3,9}
   + 6 R{3,13} + 6 R{4,6} + 6 R{4,12} + 6 R{4,13} + 6 R{4,14} + 5 R{5,8}
   + 6 R{5,11} + 5 R{5,13} + 5 R{5,15} + 6 R{6,6} + 6 R{6,11} <= 6
 R2_38: 8 R{0,5} + 8 R{1,5} + 8 R{1,13} + 8 R{3,2} + 8 R{3,3} + 8 R{3,5}
   + 8 R{3,6} + 8 R{3,8} + 8 R{3,9} + 8 R{3,13} + 8 R{4,6} + 8 R{4,12}
   + 8 R{4,13} + 8 R{6,0} + 8 R{6,1} + 8 R{6,9} + 8 R{6,10} + 7 R{6,11}
   + 8 R{6,14} <= 8
 R2_39: <= 0
 R2_40: 14 R{0,1} + 14 R{0,2} + 14 R{0,3} + 14 R{0,4} + 14 R{0,5}
   + 14 R{0,8} + 14 R{0,12} + 14 R{0,13} + 14 R{4,5} + 14 R{5,11} <= 14
 R2_41: 5 R{3,3} + 5 R{4,3} + 5 R{4,4} + 5 R{4,5} + 5 R{4,6} + 5 R{4,7}
   + 5 R{4,8} + 5 R{4,9} + 5 R{4,10} + 5 R{4,11} + 5 R{4,12} + 5 R{4,13}
   + 5 R{4,14} + 5 R{4,15} + 5 R{6,0} + 5 R{6,1} + 5 R{6,9} + 5 R{6,11}
   + 5 R{6,14} <= 5
 R2_42: 4 R{0,13} + 4 R{1,8} + 4 R{1,12} + 4 R{1,14} + 4 R{2,6} + 4 R{2,11}
   + 4 R{3,8} + 4 R{4,7} + 4 R{4,8} + 4 R{4,9} + 4 R{4,10} + 4 R{4,11}
   + 4 R{4,14} + 4 R{5,1} + 4 R{5,2} + 4 R{5,4} + 4 R{5,8} + 4 R{5,15}
   <= 4
 R2_43: <= 0
 R2_44: 12 R{0,12} + 12 R{1,8} + 12 R{1,12} + 12 R{1,14} + 12 R{3,12}
   + 12 R{5,1} + 12 R{5,2} + 12 R{5,3} + 12 R{5,5} + 12 R{5,6} + 12 R{5,7}
   + 12 R{5,11} + 12 R{5,14} <= 12
 R2_45: 6 R{1,6} + 6 R{2,5} + 6 R{2,8} + 6 R{4,3} + 6 R{4,4} + 6 R{4,5}
   + 6 R{4,6} + 6 R{4,7} + 6 R{4,8} + 6 R{4,9} + 6 R{4,10} + 6 R{4,11}
   + 6 R{4,12} + 6 R{4,13} + 6 R{4,14} <= 6
 R2_46: 6 R{1,1} + 6 R{1,2} + 6 R{1,3} + 6 R{1,5} + 6 R{1,6} + 6 R{1,8}
   + 6 R{1,11} + 6 R{1,12} + 6 R{1,13} + 6 R{1,14} + 6 R{4,10} + 6 R{4,14}
   + 6 R{4,15} + 6 R{6,9} + 6 R{6,11} + 6 R{6,14} + 6 R{6,16} <= 6
Bounds
End
